c nIsolatedPIs 4
c maxPI 28
p cnf 609 1744
c gate 29 1 24 0
1 -29 0
24 -29 0
-1 -24 29 0
c gate 30 1 23 0
1 -30 0
23 -30 0
-1 -23 30 0
c gate 31 3 21 0
3 -31 0
21 -31 0
-3 -21 31 0
c gate 32 2 22 0
2 -32 0
22 -32 0
-2 -22 32 0
c gate 33 31 32 0
31 -33 0
32 -33 0
-31 -32 33 0
c gate 34 -31 -32 0
-31 -34 0
-32 -34 0
31 32 34 0
c gate 35 -33 -34 0
-33 -35 0
-34 -35 0
33 34 35 0
c gate 36 30 35 0
30 -36 0
35 -36 0
-30 -35 36 0
c gate 37 -30 -35 0
-30 -37 0
-35 -37 0
30 35 37 0
c gate 38 -36 -37 0
-36 -38 0
-37 -38 0
36 37 38 0
c gate 39 5 18 0
5 -39 0
18 -39 0
-5 -18 39 0
c gate 40 4 19 0
4 -40 0
19 -40 0
-4 -19 40 0
c gate 41 39 40 0
39 -41 0
40 -41 0
-39 -40 41 0
c gate 42 3 20 0
3 -42 0
20 -42 0
-3 -20 42 0
c gate 43 -39 -40 0
-39 -43 0
-40 -43 0
39 40 43 0
c gate 44 -41 -43 0
-41 -44 0
-43 -44 0
41 43 44 0
c gate 45 42 44 0
42 -45 0
44 -45 0
-42 -44 45 0
c gate 46 -41 -45 0
-41 -46 0
-45 -46 0
41 45 46 0
c gate 47 38 -46 0
38 -47 0
-46 -47 0
-38 46 47 0
c gate 48 -38 46 0
-38 -48 0
46 -48 0
38 -46 48 0
c gate 49 -47 -48 0
-47 -49 0
-48 -49 0
47 48 49 0
c gate 50 2 21 0
2 -50 0
21 -50 0
-2 -21 50 0
c gate 51 1 22 0
1 -51 0
22 -51 0
-1 -22 51 0
c gate 52 50 51 0
50 -52 0
51 -52 0
-50 -51 52 0
c gate 53 49 52 0
49 -53 0
52 -53 0
-49 -52 53 0
c gate 54 -47 -53 0
-47 -54 0
-53 -54 0
47 53 54 0
c gate 55 29 -54 0
29 -55 0
-54 -55 0
-29 54 55 0
c gate 56 4 20 0
4 -56 0
20 -56 0
-4 -20 56 0
c gate 57 6 18 0
6 -57 0
18 -57 0
-6 -18 57 0
c gate 58 5 19 0
5 -58 0
19 -58 0
-5 -19 58 0
c gate 59 -57 -58 0
-57 -59 0
-58 -59 0
57 58 59 0
c gate 60 57 58 0
57 -60 0
58 -60 0
-57 -58 60 0
c gate 61 -59 -60 0
-59 -61 0
-60 -61 0
59 60 61 0
c gate 62 56 61 0
56 -62 0
61 -62 0
-56 -61 62 0
c gate 63 -56 -61 0
-56 -63 0
-61 -63 0
56 61 63 0
c gate 64 -62 -63 0
-62 -64 0
-63 -64 0
62 63 64 0
c gate 65 7 17 0
7 -65 0
17 -65 0
-7 -17 65 0
c gate 66 9 15 0
9 -66 0
15 -66 0
-9 -15 66 0
c gate 67 8 16 0
8 -67 0
16 -67 0
-8 -16 67 0
c gate 68 66 67 0
66 -68 0
67 -68 0
-66 -67 68 0
c gate 69 -66 -67 0
-66 -69 0
-67 -69 0
66 67 69 0
c gate 70 -68 -69 0
-68 -70 0
-69 -70 0
68 69 70 0
c gate 71 65 70 0
65 -71 0
70 -71 0
-65 -70 71 0
c gate 72 -65 -70 0
-65 -72 0
-70 -72 0
65 70 72 0
c gate 73 -71 -72 0
-71 -73 0
-72 -73 0
71 72 73 0
c gate 74 8 15 0
8 -74 0
15 -74 0
-8 -15 74 0
c gate 75 7 16 0
7 -75 0
16 -75 0
-7 -16 75 0
c gate 76 -74 -75 0
-74 -76 0
-75 -76 0
74 75 76 0
c gate 77 74 75 0
74 -77 0
75 -77 0
-74 -75 77 0
c gate 78 -76 -77 0
-76 -78 0
-77 -78 0
76 77 78 0
c gate 79 6 17 0
6 -79 0
17 -79 0
-6 -17 79 0
c gate 80 78 -79 0
78 -80 0
-79 -80 0
-78 79 80 0
c gate 81 -76 -80 0
-76 -81 0
-80 -81 0
76 80 81 0
c gate 82 73 81 0
73 -82 0
81 -82 0
-73 -81 82 0
c gate 83 -73 -81 0
-73 -83 0
-81 -83 0
73 81 83 0
c gate 84 -82 -83 0
-82 -84 0
-83 -84 0
82 83 84 0
c gate 85 64 84 0
64 -85 0
84 -85 0
-64 -84 85 0
c gate 86 -64 -84 0
-64 -86 0
-84 -86 0
64 84 86 0
c gate 87 -85 -86 0
-85 -87 0
-86 -87 0
85 86 87 0
c gate 88 7 15 0
7 -88 0
15 -88 0
-7 -15 88 0
c gate 89 6 16 0
6 -89 0
16 -89 0
-6 -16 89 0
c gate 90 88 89 0
88 -90 0
89 -90 0
-88 -89 90 0
c gate 91 5 17 0
5 -91 0
17 -91 0
-5 -17 91 0
c gate 92 -88 -89 0
-88 -92 0
-89 -92 0
88 89 92 0
c gate 93 -90 -92 0
-90 -93 0
-92 -93 0
90 92 93 0
c gate 94 91 93 0
91 -94 0
93 -94 0
-91 -93 94 0
c gate 95 -90 -94 0
-90 -95 0
-94 -95 0
90 94 95 0
c gate 96 -78 79 0
-78 -96 0
79 -96 0
78 -79 96 0
c gate 97 -80 -96 0
-80 -97 0
-96 -97 0
80 96 97 0
c gate 98 95 97 0
95 -98 0
97 -98 0
-95 -97 98 0
c gate 99 -95 -97 0
-95 -99 0
-97 -99 0
95 97 99 0
c gate 100 -98 -99 0
-98 -100 0
-99 -100 0
98 99 100 0
c gate 101 -42 -44 0
-42 -101 0
-44 -101 0
42 44 101 0
c gate 102 -45 -101 0
-45 -102 0
-101 -102 0
45 101 102 0
c gate 103 100 -102 0
100 -103 0
-102 -103 0
-100 102 103 0
c gate 104 -98 -103 0
-98 -104 0
-103 -104 0
98 103 104 0
c gate 105 87 104 0
87 -105 0
104 -105 0
-87 -104 105 0
c gate 106 -49 -52 0
-49 -106 0
-52 -106 0
49 52 106 0
c gate 107 -53 -106 0
-53 -107 0
-106 -107 0
53 106 107 0
c gate 108 -87 -104 0
-87 -108 0
-104 -108 0
87 104 108 0
c gate 109 -105 -108 0
-105 -109 0
-108 -109 0
105 108 109 0
c gate 110 107 109 0
107 -110 0
109 -110 0
-107 -109 110 0
c gate 111 -105 -110 0
-105 -111 0
-110 -111 0
105 110 111 0
c gate 112 -33 -36 0
-33 -112 0
-36 -112 0
33 36 112 0
c gate 113 2 23 0
2 -113 0
23 -113 0
-2 -23 113 0
c gate 114 4 21 0
4 -114 0
21 -114 0
-4 -21 114 0
c gate 115 3 22 0
3 -115 0
22 -115 0
-3 -22 115 0
c gate 116 114 115 0
114 -116 0
115 -116 0
-114 -115 116 0
c gate 117 -114 -115 0
-114 -117 0
-115 -117 0
114 115 117 0
c gate 118 -116 -117 0
-116 -118 0
-117 -118 0
116 117 118 0
c gate 119 113 118 0
113 -119 0
118 -119 0
-113 -118 119 0
c gate 120 -113 -118 0
-113 -120 0
-118 -120 0
113 118 120 0
c gate 121 -119 -120 0
-119 -121 0
-120 -121 0
119 120 121 0
c gate 122 -60 -62 0
-60 -122 0
-62 -122 0
60 62 122 0
c gate 123 121 -122 0
121 -123 0
-122 -123 0
-121 122 123 0
c gate 124 -121 122 0
-121 -124 0
122 -124 0
121 -122 124 0
c gate 125 -123 -124 0
-123 -125 0
-124 -125 0
123 124 125 0
c gate 126 -112 125 0
-112 -126 0
125 -126 0
112 -125 126 0
c gate 127 112 -125 0
112 -127 0
-125 -127 0
-112 125 127 0
c gate 128 -126 -127 0
-126 -128 0
-127 -128 0
126 127 128 0
c gate 129 -82 -85 0
-82 -129 0
-85 -129 0
82 85 129 0
c gate 130 5 20 0
5 -130 0
20 -130 0
-5 -20 130 0
c gate 131 7 18 0
7 -131 0
18 -131 0
-7 -18 131 0
c gate 132 6 19 0
6 -132 0
19 -132 0
-6 -19 132 0
c gate 133 -131 -132 0
-131 -133 0
-132 -133 0
131 132 133 0
c gate 134 131 132 0
131 -134 0
132 -134 0
-131 -132 134 0
c gate 135 -133 -134 0
-133 -135 0
-134 -135 0
133 134 135 0
c gate 136 130 135 0
130 -136 0
135 -136 0
-130 -135 136 0
c gate 137 -130 -135 0
-130 -137 0
-135 -137 0
130 135 137 0
c gate 138 -136 -137 0
-136 -138 0
-137 -138 0
136 137 138 0
c gate 139 -68 -71 0
-68 -139 0
-71 -139 0
68 71 139 0
c gate 140 8 17 0
8 -140 0
17 -140 0
-8 -17 140 0
c gate 141 10 15 0
10 -141 0
15 -141 0
-10 -15 141 0
c gate 142 9 16 0
9 -142 0
16 -142 0
-9 -16 142 0
c gate 143 -141 -142 0
-141 -143 0
-142 -143 0
141 142 143 0
c gate 144 141 142 0
141 -144 0
142 -144 0
-141 -142 144 0
c gate 145 -143 -144 0
-143 -145 0
-144 -145 0
143 144 145 0
c gate 146 140 145 0
140 -146 0
145 -146 0
-140 -145 146 0
c gate 147 -140 -145 0
-140 -147 0
-145 -147 0
140 145 147 0
c gate 148 -146 -147 0
-146 -148 0
-147 -148 0
146 147 148 0
c gate 149 -139 148 0
-139 -149 0
148 -149 0
139 -148 149 0
c gate 150 139 -148 0
139 -150 0
-148 -150 0
-139 148 150 0
c gate 151 -149 -150 0
-149 -151 0
-150 -151 0
149 150 151 0
c gate 152 138 151 0
138 -152 0
151 -152 0
-138 -151 152 0
c gate 153 -138 -151 0
-138 -153 0
-151 -153 0
138 151 153 0
c gate 154 -152 -153 0
-152 -154 0
-153 -154 0
152 153 154 0
c gate 155 -129 154 0
-129 -155 0
154 -155 0
129 -154 155 0
c gate 156 129 -154 0
129 -156 0
-154 -156 0
-129 154 156 0
c gate 157 -155 -156 0
-155 -157 0
-156 -157 0
155 156 157 0
c gate 158 128 157 0
128 -158 0
157 -158 0
-128 -157 158 0
c gate 159 -128 -157 0
-128 -159 0
-157 -159 0
128 157 159 0
c gate 160 -158 -159 0
-158 -160 0
-159 -160 0
158 159 160 0
c gate 161 -111 160 0
-111 -161 0
160 -161 0
111 -160 161 0
c gate 162 -29 54 0
-29 -162 0
54 -162 0
29 -54 162 0
c gate 163 -55 -162 0
-55 -163 0
-162 -163 0
55 162 163 0
c gate 164 111 -160 0
111 -164 0
-160 -164 0
-111 160 164 0
c gate 165 -161 -164 0
-161 -165 0
-164 -165 0
161 164 165 0
c gate 166 163 165 0
163 -166 0
165 -166 0
-163 -165 166 0
c gate 167 -161 -166 0
-161 -167 0
-166 -167 0
161 166 167 0
c gate 168 2 24 0
2 -168 0
24 -168 0
-2 -24 168 0
c gate 169 1 25 0
1 -169 0
25 -169 0
-1 -25 169 0
c gate 170 168 169 0
168 -170 0
169 -170 0
-168 -169 170 0
c gate 171 -168 -169 0
-168 -171 0
-169 -171 0
168 169 171 0
c gate 172 -170 -171 0
-170 -172 0
-171 -172 0
170 171 172 0
c gate 173 -123 -126 0
-123 -173 0
-126 -173 0
123 126 173 0
c gate 174 172 -173 0
172 -174 0
-173 -174 0
-172 173 174 0
c gate 175 -172 173 0
-172 -175 0
173 -175 0
172 -173 175 0
c gate 176 -174 -175 0
-174 -176 0
-175 -176 0
174 175 176 0
c gate 177 -155 -158 0
-155 -177 0
-158 -177 0
155 158 177 0
c gate 178 -116 -119 0
-116 -178 0
-119 -178 0
116 119 178 0
c gate 179 3 23 0
3 -179 0
23 -179 0
-3 -23 179 0
c gate 180 5 21 0
5 -180 0
21 -180 0
-5 -21 180 0
c gate 181 4 22 0
4 -181 0
22 -181 0
-4 -22 181 0
c gate 182 -180 -181 0
-180 -182 0
-181 -182 0
180 181 182 0
c gate 183 180 181 0
180 -183 0
181 -183 0
-180 -181 183 0
c gate 184 -182 -183 0
-182 -184 0
-183 -184 0
182 183 184 0
c gate 185 179 184 0
179 -185 0
184 -185 0
-179 -184 185 0
c gate 186 -179 -184 0
-179 -186 0
-184 -186 0
179 184 186 0
c gate 187 -185 -186 0
-185 -187 0
-186 -187 0
185 186 187 0
c gate 188 -134 -136 0
-134 -188 0
-136 -188 0
134 136 188 0
c gate 189 187 -188 0
187 -189 0
-188 -189 0
-187 188 189 0
c gate 190 -187 188 0
-187 -190 0
188 -190 0
187 -188 190 0
c gate 191 -189 -190 0
-189 -191 0
-190 -191 0
189 190 191 0
c gate 192 -178 191 0
-178 -192 0
191 -192 0
178 -191 192 0
c gate 193 178 -191 0
178 -193 0
-191 -193 0
-178 191 193 0
c gate 194 -192 -193 0
-192 -194 0
-193 -194 0
192 193 194 0
c gate 195 -149 -152 0
-149 -195 0
-152 -195 0
149 152 195 0
c gate 196 6 20 0
6 -196 0
20 -196 0
-6 -20 196 0
c gate 197 8 18 0
8 -197 0
18 -197 0
-8 -18 197 0
c gate 198 7 19 0
7 -198 0
19 -198 0
-7 -19 198 0
c gate 199 -197 -198 0
-197 -199 0
-198 -199 0
197 198 199 0
c gate 200 197 198 0
197 -200 0
198 -200 0
-197 -198 200 0
c gate 201 -199 -200 0
-199 -201 0
-200 -201 0
199 200 201 0
c gate 202 -196 -201 0
-196 -202 0
-201 -202 0
196 201 202 0
c gate 203 196 201 0
196 -203 0
201 -203 0
-196 -201 203 0
c gate 204 -202 -203 0
-202 -204 0
-203 -204 0
202 203 204 0
c gate 205 -144 -146 0
-144 -205 0
-146 -205 0
144 146 205 0
c gate 206 9 17 0
9 -206 0
17 -206 0
-9 -17 206 0
c gate 207 11 15 0
11 -207 0
15 -207 0
-11 -15 207 0
c gate 208 10 16 0
10 -208 0
16 -208 0
-10 -16 208 0
c gate 209 207 208 0
207 -209 0
208 -209 0
-207 -208 209 0
c gate 210 -207 -208 0
-207 -210 0
-208 -210 0
207 208 210 0
c gate 211 -209 -210 0
-209 -211 0
-210 -211 0
209 210 211 0
c gate 212 206 211 0
206 -212 0
211 -212 0
-206 -211 212 0
c gate 213 -206 -211 0
-206 -213 0
-211 -213 0
206 211 213 0
c gate 214 -212 -213 0
-212 -214 0
-213 -214 0
212 213 214 0
c gate 215 -205 214 0
-205 -215 0
214 -215 0
205 -214 215 0
c gate 216 205 -214 0
205 -216 0
-214 -216 0
-205 214 216 0
c gate 217 -215 -216 0
-215 -217 0
-216 -217 0
215 216 217 0
c gate 218 204 217 0
204 -218 0
217 -218 0
-204 -217 218 0
c gate 219 -204 -217 0
-204 -219 0
-217 -219 0
204 217 219 0
c gate 220 -218 -219 0
-218 -220 0
-219 -220 0
218 219 220 0
c gate 221 -195 220 0
-195 -221 0
220 -221 0
195 -220 221 0
c gate 222 195 -220 0
195 -222 0
-220 -222 0
-195 220 222 0
c gate 223 -221 -222 0
-221 -223 0
-222 -223 0
221 222 223 0
c gate 224 194 223 0
194 -224 0
223 -224 0
-194 -223 224 0
c gate 225 -194 -223 0
-194 -225 0
-223 -225 0
194 223 225 0
c gate 226 -224 -225 0
-224 -226 0
-225 -226 0
224 225 226 0
c gate 227 -177 226 0
-177 -227 0
226 -227 0
177 -226 227 0
c gate 228 177 -226 0
177 -228 0
-226 -228 0
-177 226 228 0
c gate 229 -227 -228 0
-227 -229 0
-228 -229 0
227 228 229 0
c gate 230 176 229 0
176 -230 0
229 -230 0
-176 -229 230 0
c gate 231 -176 -229 0
-176 -231 0
-229 -231 0
176 229 231 0
c gate 232 -230 -231 0
-230 -232 0
-231 -232 0
230 231 232 0
c gate 233 -167 232 0
-167 -233 0
232 -233 0
167 -232 233 0
c gate 234 167 -232 0
167 -234 0
-232 -234 0
-167 232 234 0
c gate 235 -233 -234 0
-233 -235 0
-234 -235 0
233 234 235 0
c gate 236 55 235 0
55 -236 0
235 -236 0
-55 -235 236 0
c gate 237 -55 -235 0
-55 -237 0
-235 -237 0
55 235 237 0
c gate 238 -236 -237 0
-236 -238 0
-237 -238 0
236 237 238 0
c gate 239 -107 -109 0
-107 -239 0
-109 -239 0
107 109 239 0
c gate 240 -110 -239 0
-110 -240 0
-239 -240 0
110 239 240 0
c gate 241 6 15 0
6 -241 0
15 -241 0
-6 -15 241 0
c gate 242 5 16 0
5 -242 0
16 -242 0
-5 -16 242 0
c gate 243 241 242 0
241 -243 0
242 -243 0
-241 -242 243 0
c gate 244 4 17 0
4 -244 0
17 -244 0
-4 -17 244 0
c gate 245 -241 -242 0
-241 -245 0
-242 -245 0
241 242 245 0
c gate 246 -243 -245 0
-243 -246 0
-245 -246 0
243 245 246 0
c gate 247 244 246 0
244 -247 0
246 -247 0
-244 -246 247 0
c gate 248 -243 -247 0
-243 -248 0
-247 -248 0
243 247 248 0
c gate 249 -91 -93 0
-91 -249 0
-93 -249 0
91 93 249 0
c gate 250 -94 -249 0
-94 -250 0
-249 -250 0
94 249 250 0
c gate 251 -248 250 0
-248 -251 0
250 -251 0
248 -250 251 0
c gate 252 2 20 0
2 -252 0
20 -252 0
-2 -20 252 0
c gate 253 4 18 0
4 -253 0
18 -253 0
-4 -18 253 0
c gate 254 3 19 0
3 -254 0
19 -254 0
-3 -19 254 0
c gate 255 -253 -254 0
-253 -255 0
-254 -255 0
253 254 255 0
c gate 256 253 254 0
253 -256 0
254 -256 0
-253 -254 256 0
c gate 257 -255 -256 0
-255 -257 0
-256 -257 0
255 256 257 0
c gate 258 252 257 0
252 -258 0
257 -258 0
-252 -257 258 0
c gate 259 -252 -257 0
-252 -259 0
-257 -259 0
252 257 259 0
c gate 260 -258 -259 0
-258 -260 0
-259 -260 0
258 259 260 0
c gate 261 248 -250 0
248 -261 0
-250 -261 0
-248 250 261 0
c gate 262 -251 -261 0
-251 -262 0
-261 -262 0
251 261 262 0
c gate 263 260 262 0
260 -263 0
262 -263 0
-260 -262 263 0
c gate 264 -251 -263 0
-251 -264 0
-263 -264 0
251 263 264 0
c gate 265 -100 102 0
-100 -265 0
102 -265 0
100 -102 265 0
c gate 266 -103 -265 0
-103 -266 0
-265 -266 0
103 265 266 0
c gate 267 264 266 0
264 -267 0
266 -267 0
-264 -266 267 0
c gate 268 -264 -266 0
-264 -268 0
-266 -268 0
264 266 268 0
c gate 269 -267 -268 0
-267 -269 0
-268 -269 0
267 268 269 0
c gate 270 -50 -51 0
-50 -270 0
-51 -270 0
50 51 270 0
c gate 271 -52 -270 0
-52 -271 0
-270 -271 0
52 270 271 0
c gate 272 -256 -258 0
-256 -272 0
-258 -272 0
256 258 272 0
c gate 273 -271 272 0
-271 -273 0
272 -273 0
271 -272 273 0
c gate 274 271 -272 0
271 -274 0
-272 -274 0
-271 272 274 0
c gate 275 -273 -274 0
-273 -275 0
-274 -275 0
273 274 275 0
c gate 276 269 -275 0
269 -276 0
-275 -276 0
-269 275 276 0
c gate 277 -267 -276 0
-267 -277 0
-276 -277 0
267 276 277 0
c gate 278 240 277 0
240 -278 0
277 -278 0
-240 -277 278 0
c gate 279 -240 -277 0
-240 -279 0
-277 -279 0
240 277 279 0
c gate 280 -278 -279 0
-278 -280 0
-279 -280 0
278 279 280 0
c gate 281 274 280 0
274 -281 0
280 -281 0
-274 -280 281 0
c gate 282 -278 -281 0
-278 -282 0
-281 -282 0
278 281 282 0
c gate 283 -163 -165 0
-163 -283 0
-165 -283 0
163 165 283 0
c gate 284 -166 -283 0
-166 -284 0
-283 -284 0
166 283 284 0
c gate 285 282 -284 0
282 -285 0
-284 -285 0
-282 284 285 0
c gate 286 -282 284 0
-282 -286 0
284 -286 0
282 -284 286 0
c gate 287 4 16 0
4 -287 0
16 -287 0
-4 -16 287 0
c gate 288 5 15 0
5 -288 0
15 -288 0
-5 -15 288 0
c gate 289 287 288 0
287 -289 0
288 -289 0
-287 -288 289 0
c gate 290 3 17 0
3 -290 0
17 -290 0
-3 -17 290 0
c gate 291 -287 -288 0
-287 -291 0
-288 -291 0
287 288 291 0
c gate 292 -289 -291 0
-289 -292 0
-291 -292 0
289 291 292 0
c gate 293 290 292 0
290 -293 0
292 -293 0
-290 -292 293 0
c gate 294 -289 -293 0
-289 -294 0
-293 -294 0
289 293 294 0
c gate 295 -244 -246 0
-244 -295 0
-246 -295 0
244 246 295 0
c gate 296 -247 -295 0
-247 -296 0
-295 -296 0
247 295 296 0
c gate 297 -294 296 0
-294 -297 0
296 -297 0
294 -296 297 0
c gate 298 1 20 0
1 -298 0
20 -298 0
-1 -20 298 0
c gate 299 3 18 0
3 -299 0
18 -299 0
-3 -18 299 0
c gate 300 2 19 0
2 -300 0
19 -300 0
-2 -19 300 0
c gate 301 299 300 0
299 -301 0
300 -301 0
-299 -300 301 0
c gate 302 -299 -300 0
-299 -302 0
-300 -302 0
299 300 302 0
c gate 303 -301 -302 0
-301 -303 0
-302 -303 0
301 302 303 0
c gate 304 298 303 0
298 -304 0
303 -304 0
-298 -303 304 0
c gate 305 -298 -303 0
-298 -305 0
-303 -305 0
298 303 305 0
c gate 306 -304 -305 0
-304 -306 0
-305 -306 0
304 305 306 0
c gate 307 294 -296 0
294 -307 0
-296 -307 0
-294 296 307 0
c gate 308 -297 -307 0
-297 -308 0
-307 -308 0
297 307 308 0
c gate 309 306 308 0
306 -309 0
308 -309 0
-306 -308 309 0
c gate 310 -297 -309 0
-297 -310 0
-309 -310 0
297 309 310 0
c gate 311 -260 -262 0
-260 -311 0
-262 -311 0
260 262 311 0
c gate 312 -263 -311 0
-263 -312 0
-311 -312 0
263 311 312 0
c gate 313 -310 312 0
-310 -313 0
312 -313 0
310 -312 313 0
c gate 314 1 21 0
1 -314 0
21 -314 0
-1 -21 314 0
c gate 315 -301 -304 0
-301 -315 0
-304 -315 0
301 304 315 0
c gate 316 314 -315 0
314 -316 0
-315 -316 0
-314 315 316 0
c gate 317 -314 315 0
-314 -317 0
315 -317 0
314 -315 317 0
c gate 318 -316 -317 0
-316 -318 0
-317 -318 0
316 317 318 0
c gate 319 310 -312 0
310 -319 0
-312 -319 0
-310 312 319 0
c gate 320 -313 -319 0
-313 -320 0
-319 -320 0
313 319 320 0
c gate 321 318 320 0
318 -321 0
320 -321 0
-318 -320 321 0
c gate 322 -313 -321 0
-313 -322 0
-321 -322 0
313 321 322 0
c gate 323 -269 275 0
-269 -323 0
275 -323 0
269 -275 323 0
c gate 324 -276 -323 0
-276 -324 0
-323 -324 0
276 323 324 0
c gate 325 -322 -324 0
-322 -325 0
-324 -325 0
322 324 325 0
c gate 326 322 324 0
322 -326 0
324 -326 0
-322 -324 326 0
c gate 327 -325 -326 0
-325 -327 0
-326 -327 0
325 326 327 0
c gate 328 316 327 0
316 -328 0
327 -328 0
-316 -327 328 0
c gate 329 -325 -328 0
-325 -329 0
-328 -329 0
325 328 329 0
c gate 330 -274 -280 0
-274 -330 0
-280 -330 0
274 280 330 0
c gate 331 -281 -330 0
-281 -331 0
-330 -331 0
281 330 331 0
c gate 332 -329 331 0
-329 -332 0
331 -332 0
329 -331 332 0
c gate 333 -286 -332 0
-286 -333 0
-332 -333 0
286 332 333 0
c gate 334 -285 -333 0
-285 -334 0
-333 -334 0
285 333 334 0
c gate 335 238 334 0
238 -335 0
334 -335 0
-238 -334 335 0
c gate 336 -227 -230 0
-227 -336 0
-230 -336 0
227 230 336 0
c gate 337 1 26 0
1 -337 0
26 -337 0
-1 -26 337 0
c gate 338 3 24 0
3 -338 0
24 -338 0
-3 -24 338 0
c gate 339 2 25 0
2 -339 0
25 -339 0
-2 -25 339 0
c gate 340 338 339 0
338 -340 0
339 -340 0
-338 -339 340 0
c gate 341 -338 -339 0
-338 -341 0
-339 -341 0
338 339 341 0
c gate 342 -340 -341 0
-340 -342 0
-341 -342 0
340 341 342 0
c gate 343 337 342 0
337 -343 0
342 -343 0
-337 -342 343 0
c gate 344 -337 -342 0
-337 -344 0
-342 -344 0
337 342 344 0
c gate 345 -343 -344 0
-343 -345 0
-344 -345 0
343 344 345 0
c gate 346 170 345 0
170 -346 0
345 -346 0
-170 -345 346 0
c gate 347 -170 -345 0
-170 -347 0
-345 -347 0
170 345 347 0
c gate 348 -346 -347 0
-346 -348 0
-347 -348 0
346 347 348 0
c gate 349 -189 -192 0
-189 -349 0
-192 -349 0
189 192 349 0
c gate 350 -348 349 0
-348 -350 0
349 -350 0
348 -349 350 0
c gate 351 348 -349 0
348 -351 0
-349 -351 0
-348 349 351 0
c gate 352 -350 -351 0
-350 -352 0
-351 -352 0
350 351 352 0
c gate 353 -221 -224 0
-221 -353 0
-224 -353 0
221 224 353 0
c gate 354 -183 -185 0
-183 -354 0
-185 -354 0
183 185 354 0
c gate 355 4 23 0
4 -355 0
23 -355 0
-4 -23 355 0
c gate 356 6 21 0
6 -356 0
21 -356 0
-6 -21 356 0
c gate 357 5 22 0
5 -357 0
22 -357 0
-5 -22 357 0
c gate 358 356 357 0
356 -358 0
357 -358 0
-356 -357 358 0
c gate 359 -356 -357 0
-356 -359 0
-357 -359 0
356 357 359 0
c gate 360 -358 -359 0
-358 -360 0
-359 -360 0
358 359 360 0
c gate 361 355 360 0
355 -361 0
360 -361 0
-355 -360 361 0
c gate 362 -355 -360 0
-355 -362 0
-360 -362 0
355 360 362 0
c gate 363 -361 -362 0
-361 -363 0
-362 -363 0
361 362 363 0
c gate 364 -200 -203 0
-200 -364 0
-203 -364 0
200 203 364 0
c gate 365 363 -364 0
363 -365 0
-364 -365 0
-363 364 365 0
c gate 366 -363 364 0
-363 -366 0
364 -366 0
363 -364 366 0
c gate 367 -365 -366 0
-365 -367 0
-366 -367 0
365 366 367 0
c gate 368 354 -367 0
354 -368 0
-367 -368 0
-354 367 368 0
c gate 369 -354 367 0
-354 -369 0
367 -369 0
354 -367 369 0
c gate 370 -368 -369 0
-368 -370 0
-369 -370 0
368 369 370 0
c gate 371 -215 -218 0
-215 -371 0
-218 -371 0
215 218 371 0
c gate 372 7 20 0
7 -372 0
20 -372 0
-7 -20 372 0
c gate 373 9 18 0
9 -373 0
18 -373 0
-9 -18 373 0
c gate 374 8 19 0
8 -374 0
19 -374 0
-8 -19 374 0
c gate 375 -373 -374 0
-373 -375 0
-374 -375 0
373 374 375 0
c gate 376 373 374 0
373 -376 0
374 -376 0
-373 -374 376 0
c gate 377 -375 -376 0
-375 -377 0
-376 -377 0
375 376 377 0
c gate 378 372 377 0
372 -378 0
377 -378 0
-372 -377 378 0
c gate 379 -372 -377 0
-372 -379 0
-377 -379 0
372 377 379 0
c gate 380 -378 -379 0
-378 -380 0
-379 -380 0
378 379 380 0
c gate 381 -209 -212 0
-209 -381 0
-212 -381 0
209 212 381 0
c gate 382 10 17 0
10 -382 0
17 -382 0
-10 -17 382 0
c gate 383 12 15 0
12 -383 0
15 -383 0
-12 -15 383 0
c gate 384 11 16 0
11 -384 0
16 -384 0
-11 -16 384 0
c gate 385 383 384 0
383 -385 0
384 -385 0
-383 -384 385 0
c gate 386 -383 -384 0
-383 -386 0
-384 -386 0
383 384 386 0
c gate 387 -385 -386 0
-385 -387 0
-386 -387 0
385 386 387 0
c gate 388 382 387 0
382 -388 0
387 -388 0
-382 -387 388 0
c gate 389 -382 -387 0
-382 -389 0
-387 -389 0
382 387 389 0
c gate 390 -388 -389 0
-388 -390 0
-389 -390 0
388 389 390 0
c gate 391 -381 390 0
-381 -391 0
390 -391 0
381 -390 391 0
c gate 392 381 -390 0
381 -392 0
-390 -392 0
-381 390 392 0
c gate 393 -391 -392 0
-391 -393 0
-392 -393 0
391 392 393 0
c gate 394 380 393 0
380 -394 0
393 -394 0
-380 -393 394 0
c gate 395 -380 -393 0
-380 -395 0
-393 -395 0
380 393 395 0
c gate 396 -394 -395 0
-394 -396 0
-395 -396 0
394 395 396 0
c gate 397 -371 396 0
-371 -397 0
396 -397 0
371 -396 397 0
c gate 398 371 -396 0
371 -398 0
-396 -398 0
-371 396 398 0
c gate 399 -397 -398 0
-397 -399 0
-398 -399 0
397 398 399 0
c gate 400 370 399 0
370 -400 0
399 -400 0
-370 -399 400 0
c gate 401 -370 -399 0
-370 -401 0
-399 -401 0
370 399 401 0
c gate 402 -400 -401 0
-400 -402 0
-401 -402 0
400 401 402 0
c gate 403 -353 402 0
-353 -403 0
402 -403 0
353 -402 403 0
c gate 404 353 -402 0
353 -404 0
-402 -404 0
-353 402 404 0
c gate 405 -403 -404 0
-403 -405 0
-404 -405 0
403 404 405 0
c gate 406 352 405 0
352 -406 0
405 -406 0
-352 -405 406 0
c gate 407 -352 -405 0
-352 -407 0
-405 -407 0
352 405 407 0
c gate 408 -406 -407 0
-406 -408 0
-407 -408 0
406 407 408 0
c gate 409 -336 408 0
-336 -409 0
408 -409 0
336 -408 409 0
c gate 410 336 -408 0
336 -410 0
-408 -410 0
-336 408 410 0
c gate 411 -409 -410 0
-409 -411 0
-410 -411 0
409 410 411 0
c gate 412 174 411 0
174 -412 0
411 -412 0
-174 -411 412 0
c gate 413 -409 -412 0
-409 -413 0
-412 -413 0
409 412 413 0
c gate 414 -403 -406 0
-403 -414 0
-406 -414 0
403 406 414 0
c gate 415 1 27 0
1 -415 0
27 -415 0
-1 -27 415 0
c gate 416 -340 -343 0
-340 -416 0
-343 -416 0
340 343 416 0
c gate 417 2 26 0
2 -417 0
26 -417 0
-2 -26 417 0
c gate 418 4 24 0
4 -418 0
24 -418 0
-4 -24 418 0
c gate 419 3 25 0
3 -419 0
25 -419 0
-3 -25 419 0
c gate 420 418 419 0
418 -420 0
419 -420 0
-418 -419 420 0
c gate 421 -418 -419 0
-418 -421 0
-419 -421 0
418 419 421 0
c gate 422 -420 -421 0
-420 -422 0
-421 -422 0
420 421 422 0
c gate 423 417 422 0
417 -423 0
422 -423 0
-417 -422 423 0
c gate 424 -417 -422 0
-417 -424 0
-422 -424 0
417 422 424 0
c gate 425 -423 -424 0
-423 -425 0
-424 -425 0
423 424 425 0
c gate 426 -416 425 0
-416 -426 0
425 -426 0
416 -425 426 0
c gate 427 416 -425 0
416 -427 0
-425 -427 0
-416 425 427 0
c gate 428 -426 -427 0
-426 -428 0
-427 -428 0
426 427 428 0
c gate 429 415 428 0
415 -429 0
428 -429 0
-415 -428 429 0
c gate 430 -415 -428 0
-415 -430 0
-428 -430 0
415 428 430 0
c gate 431 -429 -430 0
-429 -431 0
-430 -431 0
429 430 431 0
c gate 432 -365 -369 0
-365 -432 0
-369 -432 0
365 369 432 0
c gate 433 -431 432 0
-431 -433 0
432 -433 0
431 -432 433 0
c gate 434 431 -432 0
431 -434 0
-432 -434 0
-431 432 434 0
c gate 435 -433 -434 0
-433 -435 0
-434 -435 0
433 434 435 0
c gate 436 346 435 0
346 -436 0
435 -436 0
-346 -435 436 0
c gate 437 -346 -435 0
-346 -437 0
-435 -437 0
346 435 437 0
c gate 438 -436 -437 0
-436 -438 0
-437 -438 0
436 437 438 0
c gate 439 -397 -400 0
-397 -439 0
-400 -439 0
397 400 439 0
c gate 440 -358 -361 0
-358 -440 0
-361 -440 0
358 361 440 0
c gate 441 5 23 0
5 -441 0
23 -441 0
-5 -23 441 0
c gate 442 7 21 0
7 -442 0
21 -442 0
-7 -21 442 0
c gate 443 6 22 0
6 -443 0
22 -443 0
-6 -22 443 0
c gate 444 442 443 0
442 -444 0
443 -444 0
-442 -443 444 0
c gate 445 -442 -443 0
-442 -445 0
-443 -445 0
442 443 445 0
c gate 446 -444 -445 0
-444 -446 0
-445 -446 0
444 445 446 0
c gate 447 441 446 0
441 -447 0
446 -447 0
-441 -446 447 0
c gate 448 -441 -446 0
-441 -448 0
-446 -448 0
441 446 448 0
c gate 449 -447 -448 0
-447 -449 0
-448 -449 0
447 448 449 0
c gate 450 -376 -378 0
-376 -450 0
-378 -450 0
376 378 450 0
c gate 451 449 -450 0
449 -451 0
-450 -451 0
-449 450 451 0
c gate 452 -449 450 0
-449 -452 0
450 -452 0
449 -450 452 0
c gate 453 -451 -452 0
-451 -453 0
-452 -453 0
451 452 453 0
c gate 454 -440 453 0
-440 -454 0
453 -454 0
440 -453 454 0
c gate 455 440 -453 0
440 -455 0
-453 -455 0
-440 453 455 0
c gate 456 -454 -455 0
-454 -456 0
-455 -456 0
454 455 456 0
c gate 457 -391 -394 0
-391 -457 0
-394 -457 0
391 394 457 0
c gate 458 8 20 0
8 -458 0
20 -458 0
-8 -20 458 0
c gate 459 10 18 0
10 -459 0
18 -459 0
-10 -18 459 0
c gate 460 9 19 0
9 -460 0
19 -460 0
-9 -19 460 0
c gate 461 -459 -460 0
-459 -461 0
-460 -461 0
459 460 461 0
c gate 462 459 460 0
459 -462 0
460 -462 0
-459 -460 462 0
c gate 463 -461 -462 0
-461 -463 0
-462 -463 0
461 462 463 0
c gate 464 458 463 0
458 -464 0
463 -464 0
-458 -463 464 0
c gate 465 -458 -463 0
-458 -465 0
-463 -465 0
458 463 465 0
c gate 466 -464 -465 0
-464 -466 0
-465 -466 0
464 465 466 0
c gate 467 -385 -388 0
-385 -467 0
-388 -467 0
385 388 467 0
c gate 468 11 17 0
11 -468 0
17 -468 0
-11 -17 468 0
c gate 469 13 15 0
13 -469 0
15 -469 0
-13 -15 469 0
c gate 470 12 16 0
12 -470 0
16 -470 0
-12 -16 470 0
c gate 471 469 470 0
469 -471 0
470 -471 0
-469 -470 471 0
c gate 472 -469 -470 0
-469 -472 0
-470 -472 0
469 470 472 0
c gate 473 -471 -472 0
-471 -473 0
-472 -473 0
471 472 473 0
c gate 474 468 473 0
468 -474 0
473 -474 0
-468 -473 474 0
c gate 475 -468 -473 0
-468 -475 0
-473 -475 0
468 473 475 0
c gate 476 -474 -475 0
-474 -476 0
-475 -476 0
474 475 476 0
c gate 477 -467 476 0
-467 -477 0
476 -477 0
467 -476 477 0
c gate 478 467 -476 0
467 -478 0
-476 -478 0
-467 476 478 0
c gate 479 -477 -478 0
-477 -479 0
-478 -479 0
477 478 479 0
c gate 480 466 479 0
466 -480 0
479 -480 0
-466 -479 480 0
c gate 481 -466 -479 0
-466 -481 0
-479 -481 0
466 479 481 0
c gate 482 -480 -481 0
-480 -482 0
-481 -482 0
480 481 482 0
c gate 483 -457 482 0
-457 -483 0
482 -483 0
457 -482 483 0
c gate 484 457 -482 0
457 -484 0
-482 -484 0
-457 482 484 0
c gate 485 -483 -484 0
-483 -485 0
-484 -485 0
483 484 485 0
c gate 486 456 485 0
456 -486 0
485 -486 0
-456 -485 486 0
c gate 487 -456 -485 0
-456 -487 0
-485 -487 0
456 485 487 0
c gate 488 -486 -487 0
-486 -488 0
-487 -488 0
486 487 488 0
c gate 489 -439 488 0
-439 -489 0
488 -489 0
439 -488 489 0
c gate 490 439 -488 0
439 -490 0
-488 -490 0
-439 488 490 0
c gate 491 -489 -490 0
-489 -491 0
-490 -491 0
489 490 491 0
c gate 492 438 491 0
438 -492 0
491 -492 0
-438 -491 492 0
c gate 493 -438 -491 0
-438 -493 0
-491 -493 0
438 491 493 0
c gate 494 -492 -493 0
-492 -494 0
-493 -494 0
492 493 494 0
c gate 495 -414 494 0
-414 -495 0
494 -495 0
414 -494 495 0
c gate 496 414 -494 0
414 -496 0
-494 -496 0
-414 494 496 0
c gate 497 -495 -496 0
-495 -497 0
-496 -497 0
495 496 497 0
c gate 498 351 497 0
351 -498 0
497 -498 0
-351 -497 498 0
c gate 499 -351 -497 0
-351 -499 0
-497 -499 0
351 497 499 0
c gate 500 -498 -499 0
-498 -500 0
-499 -500 0
498 499 500 0
c gate 501 413 -500 0
413 -501 0
-500 -501 0
-413 500 501 0
c gate 502 -495 -498 0
-495 -502 0
-498 -502 0
495 498 502 0
c gate 503 -434 -436 0
-434 -503 0
-436 -503 0
434 436 503 0
c gate 504 -489 -492 0
-489 -504 0
-492 -504 0
489 492 504 0
c gate 505 -426 -429 0
-426 -505 0
-429 -505 0
426 429 505 0
c gate 506 2 27 0
2 -506 0
27 -506 0
-2 -27 506 0
c gate 507 1 28 0
1 -507 0
28 -507 0
-1 -28 507 0
c gate 508 -506 -507 0
-506 -508 0
-507 -508 0
506 507 508 0
c gate 509 506 507 0
506 -509 0
507 -509 0
-506 -507 509 0
c gate 510 -508 -509 0
-508 -510 0
-509 -510 0
508 509 510 0
c gate 511 -420 -423 0
-420 -511 0
-423 -511 0
420 423 511 0
c gate 512 3 26 0
3 -512 0
26 -512 0
-3 -26 512 0
c gate 513 5 24 0
5 -513 0
24 -513 0
-5 -24 513 0
c gate 514 4 25 0
4 -514 0
25 -514 0
-4 -25 514 0
c gate 515 513 514 0
513 -515 0
514 -515 0
-513 -514 515 0
c gate 516 -513 -514 0
-513 -516 0
-514 -516 0
513 514 516 0
c gate 517 -515 -516 0
-515 -517 0
-516 -517 0
515 516 517 0
c gate 518 512 517 0
512 -518 0
517 -518 0
-512 -517 518 0
c gate 519 -512 -517 0
-512 -519 0
-517 -519 0
512 517 519 0
c gate 520 -518 -519 0
-518 -520 0
-519 -520 0
518 519 520 0
c gate 521 -511 520 0
-511 -521 0
520 -521 0
511 -520 521 0
c gate 522 511 -520 0
511 -522 0
-520 -522 0
-511 520 522 0
c gate 523 -521 -522 0
-521 -523 0
-522 -523 0
521 522 523 0
c gate 524 510 523 0
510 -524 0
523 -524 0
-510 -523 524 0
c gate 525 -510 -523 0
-510 -525 0
-523 -525 0
510 523 525 0
c gate 526 -524 -525 0
-524 -526 0
-525 -526 0
524 525 526 0
c gate 527 -451 -454 0
-451 -527 0
-454 -527 0
451 454 527 0
c gate 528 526 -527 0
526 -528 0
-527 -528 0
-526 527 528 0
c gate 529 -526 527 0
-526 -529 0
527 -529 0
526 -527 529 0
c gate 530 -528 -529 0
-528 -530 0
-529 -530 0
528 529 530 0
c gate 531 505 -530 0
505 -531 0
-530 -531 0
-505 530 531 0
c gate 532 -505 530 0
-505 -532 0
530 -532 0
505 -530 532 0
c gate 533 -531 -532 0
-531 -533 0
-532 -533 0
531 532 533 0
c gate 534 -483 -486 0
-483 -534 0
-486 -534 0
483 486 534 0
c gate 535 -444 -447 0
-444 -535 0
-447 -535 0
444 447 535 0
c gate 536 6 23 0
6 -536 0
23 -536 0
-6 -23 536 0
c gate 537 8 21 0
8 -537 0
21 -537 0
-8 -21 537 0
c gate 538 7 22 0
7 -538 0
22 -538 0
-7 -22 538 0
c gate 539 537 538 0
537 -539 0
538 -539 0
-537 -538 539 0
c gate 540 -537 -538 0
-537 -540 0
-538 -540 0
537 538 540 0
c gate 541 -539 -540 0
-539 -541 0
-540 -541 0
539 540 541 0
c gate 542 536 541 0
536 -542 0
541 -542 0
-536 -541 542 0
c gate 543 -536 -541 0
-536 -543 0
-541 -543 0
536 541 543 0
c gate 544 -542 -543 0
-542 -544 0
-543 -544 0
542 543 544 0
c gate 545 -462 -464 0
-462 -545 0
-464 -545 0
462 464 545 0
c gate 546 544 -545 0
544 -546 0
-545 -546 0
-544 545 546 0
c gate 547 -544 545 0
-544 -547 0
545 -547 0
544 -545 547 0
c gate 548 -546 -547 0
-546 -548 0
-547 -548 0
546 547 548 0
c gate 549 -535 548 0
-535 -549 0
548 -549 0
535 -548 549 0
c gate 550 535 -548 0
535 -550 0
-548 -550 0
-535 548 550 0
c gate 551 -549 -550 0
-549 -551 0
-550 -551 0
549 550 551 0
c gate 552 -477 -480 0
-477 -552 0
-480 -552 0
477 480 552 0
c gate 553 9 20 0
9 -553 0
20 -553 0
-9 -20 553 0
c gate 554 11 18 0
11 -554 0
18 -554 0
-11 -18 554 0
c gate 555 10 19 0
10 -555 0
19 -555 0
-10 -19 555 0
c gate 556 -554 -555 0
-554 -556 0
-555 -556 0
554 555 556 0
c gate 557 554 555 0
554 -557 0
555 -557 0
-554 -555 557 0
c gate 558 -556 -557 0
-556 -558 0
-557 -558 0
556 557 558 0
c gate 559 553 558 0
553 -559 0
558 -559 0
-553 -558 559 0
c gate 560 -553 -558 0
-553 -560 0
-558 -560 0
553 558 560 0
c gate 561 -559 -560 0
-559 -561 0
-560 -561 0
559 560 561 0
c gate 562 -471 -474 0
-471 -562 0
-474 -562 0
471 474 562 0
c gate 563 12 17 0
12 -563 0
17 -563 0
-12 -17 563 0
c gate 564 14 15 0
14 -564 0
15 -564 0
-14 -15 564 0
c gate 565 13 16 0
13 -565 0
16 -565 0
-13 -16 565 0
c gate 566 564 565 0
564 -566 0
565 -566 0
-564 -565 566 0
c gate 567 -564 -565 0
-564 -567 0
-565 -567 0
564 565 567 0
c gate 568 -566 -567 0
-566 -568 0
-567 -568 0
566 567 568 0
c gate 569 563 568 0
563 -569 0
568 -569 0
-563 -568 569 0
c gate 570 -563 -568 0
-563 -570 0
-568 -570 0
563 568 570 0
c gate 571 -569 -570 0
-569 -571 0
-570 -571 0
569 570 571 0
c gate 572 -562 571 0
-562 -572 0
571 -572 0
562 -571 572 0
c gate 573 562 -571 0
562 -573 0
-571 -573 0
-562 571 573 0
c gate 574 -572 -573 0
-572 -574 0
-573 -574 0
572 573 574 0
c gate 575 561 574 0
561 -575 0
574 -575 0
-561 -574 575 0
c gate 576 -561 -574 0
-561 -576 0
-574 -576 0
561 574 576 0
c gate 577 -575 -576 0
-575 -577 0
-576 -577 0
575 576 577 0
c gate 578 -552 577 0
-552 -578 0
577 -578 0
552 -577 578 0
c gate 579 552 -577 0
552 -579 0
-577 -579 0
-552 577 579 0
c gate 580 -578 -579 0
-578 -580 0
-579 -580 0
578 579 580 0
c gate 581 551 580 0
551 -581 0
580 -581 0
-551 -580 581 0
c gate 582 -551 -580 0
-551 -582 0
-580 -582 0
551 580 582 0
c gate 583 -581 -582 0
-581 -583 0
-582 -583 0
581 582 583 0
c gate 584 -534 583 0
-534 -584 0
583 -584 0
534 -583 584 0
c gate 585 534 -583 0
534 -585 0
-583 -585 0
-534 583 585 0
c gate 586 -584 -585 0
-584 -586 0
-585 -586 0
584 585 586 0
c gate 587 533 586 0
533 -587 0
586 -587 0
-533 -586 587 0
c gate 588 -533 -586 0
-533 -588 0
-586 -588 0
533 586 588 0
c gate 589 -587 -588 0
-587 -589 0
-588 -589 0
587 588 589 0
c gate 590 -504 589 0
-504 -590 0
589 -590 0
504 -589 590 0
c gate 591 504 -589 0
504 -591 0
-589 -591 0
-504 589 591 0
c gate 592 -590 -591 0
-590 -592 0
-591 -592 0
590 591 592 0
c gate 593 -503 592 0
-503 -593 0
592 -593 0
503 -592 593 0
c gate 594 503 -592 0
503 -594 0
-592 -594 0
-503 592 594 0
c gate 595 -593 -594 0
-593 -595 0
-594 -595 0
593 594 595 0
c gate 596 502 -595 0
502 -596 0
-595 -596 0
-502 595 596 0
c gate 597 -501 -596 0
-501 -597 0
-596 -597 0
501 596 597 0
c gate 598 -413 500 0
-413 -598 0
500 -598 0
413 -500 598 0
c gate 599 -233 -236 0
-233 -599 0
-236 -599 0
233 236 599 0
c gate 600 -174 -411 0
-174 -600 0
-411 -600 0
174 411 600 0
c gate 601 -412 -600 0
-412 -601 0
-600 -601 0
412 600 601 0
c gate 602 -599 601 0
-599 -602 0
601 -602 0
599 -601 602 0
c gate 603 -598 -602 0
-598 -603 0
-602 -603 0
598 602 603 0
c gate 604 -502 595 0
-502 -604 0
595 -604 0
502 -595 604 0
c gate 605 599 -601 0
599 -605 0
-601 -605 0
-599 601 605 0
c gate 606 -604 -605 0
-604 -606 0
-605 -606 0
604 605 606 0
c gate 607 603 606 0
603 -607 0
606 -607 0
-603 -606 607 0
c gate 608 597 607 0
597 -608 0
607 -608 0
-597 -607 608 0
c gate 609 335 608 0
335 -609 0
608 -609 0
-335 -608 609 0
c PO
609 0
